(set-logic HORN)
(declare-fun state ((Array Int Int) (Array Int Int) Int Int Int Int Int Int Int Int Int Int Int Int Int (Array Int Int) (Array Int Int) Int Int (Array Int Int) (Array Int Int) Int Int (Array Int Int) (Array Int Int) (Array Int Int) (Array Int Int) Int Int Int Int Int Int Int Int Int Int Int Int Int Int Int Int Int Int Int Int Int Int Int Int Int Int Int Bool Bool Bool Int Int Int Int Int Int) Bool)
(assert (forall ((|A| (Array Int Int)) (|B| (Array Int Int)) (|D2| Int) (|D| Int) (|E2| Int) (|F| Int) (|F2| Int) (|H| Int) (|G2| Int) (|J| Int) (|H2| Int) (|L| Int) (|M| Int) (|I2| Int) (|O| Int) (|J2| (Array Int Int)) (|Q| (Array Int Int)) (|K2| Int) (|S| Int) (|T| (Array Int Int)) (|U| (Array Int Int)) (|L2| Int) (|W| Int) (|M2| (Array Int Int)) (|Y| (Array Int Int)) (|Z| (Array Int Int)) (|A1| (Array Int Int)) (|B1| Int) (|C1| Int) (|D1| Int) (|E1| Int) (|F1| Int) (|G1| Int) (|H1| Int) (|I1| Int) (|J1| Int) (|K1| Int) (|L1| Int) (|M1| Int) (|N1| Int) (|O1| Int) (|P1| Int) (|Q1| Int) (|R1| Int) (|S1| Int) (|T1| Int) (|U1| Int) (|V1| Int) (|W1| Int) (|X1| Int) (|Y1| Int) (|Z1| Int) (|A2| Int) (|B2| Int) (|C2| Bool) (|.loc.3| Bool) (|.loc.4| Bool) (|E2_3| Int) (|D2_3| Int) (|E2_1| Int) (|G2_1| Int) (|D2_1| Int) (|F2_1| Int) (|.x.282| (Array Int Int)) (|.x.284| Int) (|.x.286| Int) (|.x.288| Int) (|.x.290| Int) (|.x.292| Int) (|.x.293| Int) (|.x.295| Int) (|.x.297| (Array Int Int)) (|.x.299| Int) (|.x.301| (Array Int Int)) (|.x.303| Int) (|.x.307| (Array Int Int)) (|.x.305| (Array Int Int)) (|.loc.5| Bool) (|.loc.6| Bool) (|.x.300| (Array Int Int)) (|.x.283| Int) (|.x.302| Int) (|.x.287| Int) (|.x.294| Int) (|.x.312| Int) (|.x.316| Int) (|.x.313| Int) (|.x.311| Int) (|.x.281| (Array Int Int)) (|.x.306| (Array Int Int)) (|.x.332| Int) (|.x.315| Int) (|.x.331| Int) (|.x.328| Int) (|.x.326| Int) (|.x.318| Int) (|.x.309| Int) (|.x.321| Int) (|.x.310| Int) (|.x.314| Int) (|.x.329| Int) (|.x.330| Int) (|.x.320| Int) (|.x.298| Int) (|.x.317| Int) (|.x.291| Int) (|.x.324| Int) (|C2_5| Bool) (|.x.304| (Array Int Int)) (|.x.296| (Array Int Int)) (|.x.285| Int) (|.x.289| Int) (|.x.308| Int) (|.x.319| Int) (|.x.322| Int) (|.x.323| Int) (|.x.325| Int) (|.x.327| Int) (|.x.333| Int) (|.x.334| Int) (|.xtv.1| Int) (|.xtv.2| Int) (|.xtv.3| Int) (|.xtv.4| Int) (|.xtv.5| Int) (|.xtv.6| Int)) (=> (and (and (not .loc.4) (not .loc.3)) (and (and (and (and (and (and (and (and (and (and (and (and (and (= A B) (not C2)) (= E2 F)) (= F2 H)) (= H2 L)) (= K2 S)) (= D2 D)) (= G2 J)) (= I2 O)) (= L2 W)) (= J2 Q)) (= M2 Y)) (= T U)) (= Z A1))) (state |A| |B| |D2| |D| |E2| |F| |F2| |H| |G2| |J| |H2| |L| |M| |I2| |O| |J2| |Q| |K2| |S| |T| |U| |L2| |W| |M2| |Y| |Z| |A1| |B1| |C1| |D1| |E1| |F1| |G1| |H1| |I1| |J1| |K1| |L1| |M1| |N1| |O1| |P1| |Q1| |R1| |S1| |T1| |U1| |V1| |W1| |X1| |Y1| |Z1| |A2| |B2| |C2| |.loc.3| |.loc.4| |E2_3| |D2_3| |E2_1| |G2_1| |D2_1| |F2_1|))))
(assert (forall ((|A| (Array Int Int)) (|B| (Array Int Int)) (|D2| Int) (|D| Int) (|E2| Int) (|F| Int) (|F2| Int) (|H| Int) (|G2| Int) (|J| Int) (|H2| Int) (|L| Int) (|M| Int) (|I2| Int) (|O| Int) (|J2| (Array Int Int)) (|Q| (Array Int Int)) (|K2| Int) (|S| Int) (|T| (Array Int Int)) (|U| (Array Int Int)) (|L2| Int) (|W| Int) (|M2| (Array Int Int)) (|Y| (Array Int Int)) (|Z| (Array Int Int)) (|A1| (Array Int Int)) (|B1| Int) (|C1| Int) (|D1| Int) (|E1| Int) (|F1| Int) (|G1| Int) (|H1| Int) (|I1| Int) (|J1| Int) (|K1| Int) (|L1| Int) (|M1| Int) (|N1| Int) (|O1| Int) (|P1| Int) (|Q1| Int) (|R1| Int) (|S1| Int) (|T1| Int) (|U1| Int) (|V1| Int) (|W1| Int) (|X1| Int) (|Y1| Int) (|Z1| Int) (|A2| Int) (|B2| Int) (|C2| Bool) (|.loc.3| Bool) (|.loc.4| Bool) (|E2_3| Int) (|D2_3| Int) (|E2_1| Int) (|G2_1| Int) (|D2_1| Int) (|F2_1| Int) (|.x.282| (Array Int Int)) (|.x.284| Int) (|.x.286| Int) (|.x.288| Int) (|.x.290| Int) (|.x.292| Int) (|.x.293| Int) (|.x.295| Int) (|.x.297| (Array Int Int)) (|.x.299| Int) (|.x.301| (Array Int Int)) (|.x.303| Int) (|.x.307| (Array Int Int)) (|.x.305| (Array Int Int)) (|.loc.5| Bool) (|.loc.6| Bool) (|.x.300| (Array Int Int)) (|.x.283| Int) (|.x.302| Int) (|.x.287| Int) (|.x.294| Int) (|.x.312| Int) (|.x.316| Int) (|.x.313| Int) (|.x.311| Int) (|.x.281| (Array Int Int)) (|.x.306| (Array Int Int)) (|.x.332| Int) (|.x.315| Int) (|.x.331| Int) (|.x.328| Int) (|.x.326| Int) (|.x.318| Int) (|.x.309| Int) (|.x.321| Int) (|.x.310| Int) (|.x.314| Int) (|.x.329| Int) (|.x.330| Int) (|.x.320| Int) (|.x.298| Int) (|.x.317| Int) (|.x.291| Int) (|.x.324| Int) (|C2_5| Bool) (|.x.304| (Array Int Int)) (|.x.296| (Array Int Int)) (|.x.285| Int) (|.x.289| Int) (|.x.308| Int) (|.x.319| Int) (|.x.322| Int) (|.x.323| Int) (|.x.325| Int) (|.x.327| Int) (|.x.333| Int) (|.x.334| Int) (|.xtv.1| Int) (|.xtv.2| Int) (|.xtv.3| Int) (|.xtv.4| Int) (|.xtv.5| Int) (|.xtv.6| Int)) (=> (and (state |A| |B| |D2| |D| |E2| |F| |F2| |H| |G2| |J| |H2| |L| |M| |I2| |O| |J2| |Q| |K2| |S| |T| |U| |L2| |W| |M2| |Y| |Z| |A1| |B1| |C1| |D1| |E1| |F1| |G1| |H1| |I1| |J1| |K1| |L1| |M1| |N1| |O1| |P1| |Q1| |R1| |S1| |T1| |U1| |V1| |W1| |X1| |Y1| |Z1| |A2| |B2| |C2| |.loc.3| |.loc.4| |E2_3| |D2_3| |E2_1| |G2_1| |D2_1| |F2_1|) (let ((.def_74 (not .loc.3))) (let ((.def_150 (= E2_3 D2_3))) (let ((.def_164 (and (= E2_3 (select (select .x.300 .x.283) .x.302)) (= D2_3 (select (select .x.300 .x.287) .x.294))))) (let ((.def_267 (and (= .x.300 (store T .x.313 (store (select T .x.313) .x.311 (select (select T .x.312) .x.316)))) (and (= .x.281 (store A .x.313 (store (select A .x.313) .x.311 (select (select .x.281 .x.313) .x.311)))) (and (= .x.306 (store Z .x.313 (store (select Z .x.313) .x.311 (select (select .x.306 .x.313) .x.311)))) (and (= D2_1 (select (select Z .x.332) .x.315)) (and (= F2_1 (select (select A .x.331) .x.328)) (and (= (+ .x.326 (* (- 1) .x.318)) 4) (and (= .x.309 .x.321) (and (= .x.321 .x.310) (and (= .x.311 .x.314) (and (= F2_1 .x.329) (and (= G2_1 .x.330) (and (= .x.332 .x.309) (and (= .x.328 .x.320) (and (= .x.321 .x.298) (and (= E2_1 (select (select Z .x.331) .x.328)) (and (= D2_1 .x.317) (and (= .x.315 .x.326) (and (= .x.331 .x.310) (and (= .x.313 .x.329) (and (= G2_1 (select (select A .x.332) .x.315)) (and (= .x.318 .x.320) (and (and (and (= E2_1 .x.314) (= .x.312 .x.330)) (= .x.316 .x.317)) (= .x.318 .x.291))))))))))))))))))))))))) (let ((.def_270 (= R1 .x.324))) (let ((.def_281 (store (store J2 0 0) .x.283 1))) (let ((.def_282 (store .def_281 .x.287 1))) (let ((.def_286 (select A .x.298))) (let ((.def_307 (= .x.283 0))) (let ((.def_326 (select Z .x.298))) (let ((.def_351 (or C2 (and (= (store (store (store M2 .x.283 4) .x.287 4) .x.298 8) .x.304) (and (= (store .def_282 .x.298 1) .x.296) (and (= .x.283 (select .def_286 .x.291)) (and (= (select (select T .x.287) .x.294) 0) (and (= (select .def_282 .x.298) 0) (and (= (select (select T .x.283) .x.302) 1) (and (= (select .def_281 .x.287) 0) (and (and (and (and (and (and (and (and (and (and (and (and (and (and (not (<= M .x.287)) (not (<= M .x.283))) (not (<= M .x.298))) (not .def_307)) (= .x.285 0)) (not (= .x.287 0))) (= .x.287 (select .def_286 (+ .x.291 4)))) (= .x.289 0)) (= .x.294 0)) (= .x.294 (select .def_326 (+ .x.291 4)))) (= .x.302 0)) (= .x.302 (select .def_326 .x.291))) (not (= .x.298 0))) (= .x.291 0)) (= (ite .def_307 0 (select J2 .x.283)) 0)))))))))))) (let ((.def_406 (= C2 C2_5))) (let ((.def_459 (not .loc.6))) (and (and (not .loc.4) (and (= B .x.282) (and (= D .x.284) (and (= F .x.286) (and (= H .x.288) (and (= J .x.290) (and (= L .x.292) (and (= M .x.293) (and (= O .x.295) (and (= Q .x.297) (and (= S .x.299) (and (= U .x.301) (and (= W .x.303) (and (= A1 .x.307) (= Y .x.305))))))))))))))) (or (or (and (and (not .loc.5) .loc.6) (or (and .def_74 (and (or C2 (not .def_150)) (and (or C2 .def_164) (and (or C2 .def_267) (and (and .def_270 C2_5) .def_351))))) (and (or C2 (= U1 .x.324)) (and (= A .x.281) (and (= D2 .x.283) (and (= E2 .x.285) (and (= F2 .x.287) (and (= G2 .x.289) (and (= H2 .x.291) (and (= I2 .x.294) (and (= J2 .x.296) (and (= K2 .x.298) (and (= T .x.300) (and (= L2 .x.302) (and (= M2 .x.304) (and (= Z .x.306) (and (= B1 .x.308) (and (= C1 .x.309) (and (= D1 .x.310) (and (= E1 .x.311) (and (= F1 .x.312) (and (= G1 .x.313) (and (= H1 .x.314) (and (= I1 .x.315) (and (= J1 .x.316) (and (= K1 .x.317) (and (= L1 .x.318) (and (= M1 .x.319) (and (= N1 .x.320) (and (= O1 .x.321) (and (= P1 .x.322) (and (= Q1 .x.323) (and (= S1 .x.325) (and (= T1 .x.326) (and (= U1 .x.327) (and (= V1 .x.328) (and (= W1 .x.329) (and (= X1 .x.330) (and (= Y1 .x.331) (and (= Z1 .x.332) (and (= A2 .x.333) (and (= B2 .x.334) (and .loc.3 .def_406))))))))))))))))))))))))))))))))))))))))))) (and (or .def_267 C2_5) (and (or .def_164 C2_5) (and (or C2_5 (and .def_150 (= .x.327 0))) (and (and .def_406 (and .loc.5 (and .def_74 (and .def_270 .def_351)))) .def_459))))) (and .def_459 (and .loc.5 (and .def_74 (and .def_351 (and .def_270 (and C2 C2_5)))))))))))))))))))))) (state |.x.281| |.x.282| |.x.283| |.x.284| |.x.285| |.x.286| |.x.287| |.x.288| |.x.289| |.x.290| |.x.291| |.x.292| |.x.293| |.x.294| |.x.295| |.x.296| |.x.297| |.x.298| |.x.299| |.x.300| |.x.301| |.x.302| |.x.303| |.x.304| |.x.305| |.x.306| |.x.307| |.x.308| |.x.309| |.x.310| |.x.311| |.x.312| |.x.313| |.x.314| |.x.315| |.x.316| |.x.317| |.x.318| |.x.319| |.x.320| |.x.321| |.x.322| |.x.323| |.x.324| |.x.325| |.x.326| |.x.327| |.x.328| |.x.329| |.x.330| |.x.331| |.x.332| |.x.333| |.x.334| |C2_5| |.loc.5| |.loc.6| |.xtv.1| |.xtv.2| |.xtv.3| |.xtv.4| |.xtv.5| |.xtv.6|))))
(assert (forall ((|A| (Array Int Int)) (|B| (Array Int Int)) (|D2| Int) (|D| Int) (|E2| Int) (|F| Int) (|F2| Int) (|H| Int) (|G2| Int) (|J| Int) (|H2| Int) (|L| Int) (|M| Int) (|I2| Int) (|O| Int) (|J2| (Array Int Int)) (|Q| (Array Int Int)) (|K2| Int) (|S| Int) (|T| (Array Int Int)) (|U| (Array Int Int)) (|L2| Int) (|W| Int) (|M2| (Array Int Int)) (|Y| (Array Int Int)) (|Z| (Array Int Int)) (|A1| (Array Int Int)) (|B1| Int) (|C1| Int) (|D1| Int) (|E1| Int) (|F1| Int) (|G1| Int) (|H1| Int) (|I1| Int) (|J1| Int) (|K1| Int) (|L1| Int) (|M1| Int) (|N1| Int) (|O1| Int) (|P1| Int) (|Q1| Int) (|R1| Int) (|S1| Int) (|T1| Int) (|U1| Int) (|V1| Int) (|W1| Int) (|X1| Int) (|Y1| Int) (|Z1| Int) (|A2| Int) (|B2| Int) (|C2| Bool) (|.loc.3| Bool) (|.loc.4| Bool) (|E2_3| Int) (|D2_3| Int) (|E2_1| Int) (|G2_1| Int) (|D2_1| Int) (|F2_1| Int) (|.x.282| (Array Int Int)) (|.x.284| Int) (|.x.286| Int) (|.x.288| Int) (|.x.290| Int) (|.x.292| Int) (|.x.293| Int) (|.x.295| Int) (|.x.297| (Array Int Int)) (|.x.299| Int) (|.x.301| (Array Int Int)) (|.x.303| Int) (|.x.307| (Array Int Int)) (|.x.305| (Array Int Int)) (|.loc.5| Bool) (|.loc.6| Bool) (|.x.300| (Array Int Int)) (|.x.283| Int) (|.x.302| Int) (|.x.287| Int) (|.x.294| Int) (|.x.312| Int) (|.x.316| Int) (|.x.313| Int) (|.x.311| Int) (|.x.281| (Array Int Int)) (|.x.306| (Array Int Int)) (|.x.332| Int) (|.x.315| Int) (|.x.331| Int) (|.x.328| Int) (|.x.326| Int) (|.x.318| Int) (|.x.309| Int) (|.x.321| Int) (|.x.310| Int) (|.x.314| Int) (|.x.329| Int) (|.x.330| Int) (|.x.320| Int) (|.x.298| Int) (|.x.317| Int) (|.x.291| Int) (|.x.324| Int) (|C2_5| Bool) (|.x.304| (Array Int Int)) (|.x.296| (Array Int Int)) (|.x.285| Int) (|.x.289| Int) (|.x.308| Int) (|.x.319| Int) (|.x.322| Int) (|.x.323| Int) (|.x.325| Int) (|.x.327| Int) (|.x.333| Int) (|.x.334| Int) (|.xtv.1| Int) (|.xtv.2| Int) (|.xtv.3| Int) (|.xtv.4| Int) (|.xtv.5| Int) (|.xtv.6| Int)) (=> (state |A| |B| |D2| |D| |E2| |F| |F2| |H| |G2| |J| |H2| |L| |M| |I2| |O| |J2| |Q| |K2| |S| |T| |U| |L2| |W| |M2| |Y| |Z| |A1| |B1| |C1| |D1| |E1| |F1| |G1| |H1| |I1| |J1| |K1| |L1| |M1| |N1| |O1| |P1| |Q1| |R1| |S1| |T1| |U1| |V1| |W1| |X1| |Y1| |Z1| |A2| |B2| |C2| |.loc.3| |.loc.4| |E2_3| |D2_3| |E2_1| |G2_1| |D2_1| |F2_1|) (not (and C2 (and .loc.4 (not .loc.3)))))))
(check-sat)
